sifdecoder -A pc64.lnx.gfo -st   NCVXQP5

 Problem name: NCVXQP5

 Double precision version will be formed

 The objective function uses 10000 nonlinear groups
 
 There are 2500 linear equality constraints
 
 There are 10000 variables bounded from below and above 
 
 
 File successfully decoded
 CUTEST: tools (double precision version) compiled successfully
 CUTEst: ipopt (double precision version) compiled successfully

******************************************************************************
This program contains Ipopt, a library for large-scale nonlinear optimization.
 Ipopt is released as open source code under the Eclipse Public License (EPL).
         For more information visit http://projects.coin-or.org/Ipopt
******************************************************************************

This is Ipopt version trunk, running with linear solver ma57.

Number of nonzeros in equality constraint Jacobian...:     7499
Number of nonzeros in inequality constraint Jacobian.:        0
Number of nonzeros in Lagrangian Hessian.............:    39984

Reallocating memory for MA57: lfact (10131465)
Total number of variables............................:    10000
                     variables with only lower bounds:        0
                variables with lower and upper bounds:    10000
                     variables with only upper bounds:        0
Total number of equality constraints.................:     2500
Total number of inequality constraints...............:        0
        inequality constraints with only lower bounds:        0
   inequality constraints with lower and upper bounds:        0
        inequality constraints with only upper bounds:        0

iter    objective    inf_pr   inf_du lg(mu)  ||d||  lg(rg) alpha_du alpha_pr  ls
   0 -2.8125000e+07 3.00e+00 1.00e+02  -1.0 0.00e+00    -  0.00e+00 0.00e+00   0
   1 -6.5001643e+07 1.33e-15 7.84e+03  -1.0 7.84e-01   4.0 3.65e-01 1.00e+00f  1
   2 -6.7409794e+07 1.78e-15 1.25e+02  -1.0 3.75e-02   3.5 1.00e+00 1.00e+00f  1
   3 -7.5872478e+07 1.78e-15 1.50e+02  -1.0 1.35e-01   3.0 1.00e+00 1.00e+00f  1
   4 -1.2303342e+08 1.78e-15 2.90e+02  -1.0 7.83e-01   2.6 7.45e-01 1.00e+00f  1
   5 -1.4880732e+08 1.78e-15 3.54e+02  -1.0 3.58e-01   3.0 1.00e+00 1.00e+00f  1
   6 -2.0973122e+08 1.78e-15 5.15e+02  -1.0 2.31e+00   2.5 6.41e-01 3.94e-01f  1
   7 -2.1189746e+08 1.78e-15 5.20e+02  -1.0 7.33e-01   2.9 1.00e+00 3.74e-02f  1
   8 -2.3620058e+08 1.78e-15 5.83e+02  -1.0 4.34e+00   2.5 6.06e-01 8.45e-02f  1
   9 -2.5803136e+08 1.78e-15 6.28e+02  -1.0 9.59e-01   2.9 1.00e+00 2.75e-01f  1
iter    objective    inf_pr   inf_du lg(mu)  ||d||  lg(rg) alpha_du alpha_pr  ls
  10 -2.9004869e+08 1.78e-15 7.09e+02  -1.0 6.97e+00   2.4 4.51e-01 6.80e-02f  1
  11 -3.2290634e+08 1.78e-15 7.73e+02  -1.0 1.35e+00   2.8 1.00e+00 2.77e-01f  1
  12 -3.7825468e+08 1.78e-15 9.12e+02  -1.0 1.25e+01   2.4 3.11e-01 6.60e-02f  1
  13 -4.1911193e+08 1.78e-15 9.87e+02  -1.0 2.04e+00   2.8 1.00e+00 2.16e-01f  1
  14 -4.6013445e+08 2.22e-15 1.10e+03  -1.0 2.67e+01   2.3 1.90e-01 2.52e-02f  1
  15 -4.7933029e+08 1.78e-15 1.13e+03  -1.0 2.90e+00   2.7 1.00e+00 7.03e-02f  1
  16 -5.6571273e+08 1.78e-15 1.46e+03  -1.0 7.48e+01   2.3 7.90e-02 2.61e-02f  1
  17 -5.8688003e+08 1.78e-15 1.50e+03  -1.0 4.59e+00   2.7 1.00e+00 5.18e-02f  1
  18 -6.0793664e+08 1.78e-15 1.54e+03  -1.0 1.33e+00   3.1 1.00e+00 1.66e-01f  1
  19 -6.5853246e+08 2.22e-15 1.62e+03  -1.0 5.65e+00   2.6 1.00e+00 9.60e-02f  1
iter    objective    inf_pr   inf_du lg(mu)  ||d||  lg(rg) alpha_du alpha_pr  ls
  20 -7.0027739e+08 1.78e-15 1.68e+03  -1.0 1.62e+00   3.1 1.00e+00 2.53e-01f  1
  21 -7.2699558e+08 2.22e-15 1.64e+03  -1.0 7.06e+00   2.6 1.00e+00 3.72e-02f  1
  22 -7.4986175e+08 1.78e-15 1.58e+03  -1.0 1.77e+00   3.0 1.00e+00 1.12e-01f  1
  23 -8.1266507e+08 2.00e-15 1.62e+03  -1.0 8.27e+00   2.5 9.13e-01 6.88e-02f  1
  24 -8.4246398e+08 1.78e-15 1.58e+03  -1.0 2.04e+00   3.0 1.00e+00 1.16e-01f  1
  25 -9.1102051e+08 2.00e-15 1.57e+03  -1.0 9.86e+00   2.5 8.39e-01 5.57e-02f  1
  26 -9.4346213e+08 2.11e-15 1.55e+03  -1.0 2.30e+00   2.9 1.00e+00 1.01e-01f  1
  27 -1.0201685e+09 2.22e-15 1.53e+03  -1.0 1.20e+01   2.4 6.65e-01 4.71e-02f  1
  28 -1.0739411e+09 2.11e-15 1.52e+03  -1.0 2.57e+00   2.9 1.00e+00 1.33e-01f  1
  29 -1.1538784e+09 2.11e-15 1.50e+03  -1.0 1.51e+01   2.4 5.21e-01 3.64e-02f  1
iter    objective    inf_pr   inf_du lg(mu)  ||d||  lg(rg) alpha_du alpha_pr  ls
  30 -1.2102774e+09 2.22e-15 1.48e+03  -1.0 2.88e+00   2.8 1.00e+00 1.14e-01f  1
  31 -1.3119655e+09 2.11e-15 1.45e+03  -1.0 1.86e+01   2.3 4.14e-01 3.45e-02f  1
  32 -1.3713374e+09 1.83e-15 1.42e+03  -1.0 3.20e+00   2.8 1.00e+00 9.80e-02f  1
  33 -1.4872000e+09 2.05e-15 1.42e+03  -1.0 2.48e+01   2.3 2.84e-01 2.87e-02f  1
  34 -1.5471778e+09 2.66e-15 1.39e+03  -1.0 3.59e+00   2.7 1.00e+00 8.04e-02f  1
  35 -1.6733003e+09 2.44e-15 1.37e+03  -1.0 3.44e+01   2.2 1.85e-01 2.24e-02f  1
  36 -1.7340903e+09 2.22e-15 1.34e+03  -1.0 3.99e+00   2.7 1.00e+00 6.74e-02f  1
  37 -1.8681065e+09 2.55e-15 1.34e+03  -1.0 5.45e+01   2.2 8.54e-02 1.60e-02f  1
  38 -1.9251127e+09 2.66e-15 1.30e+03  -1.0 4.55e+00   2.6 1.00e+00 5.20e-02f  1
  39 -2.0344462e+09 2.78e-15 1.33e+03  -1.0 1.66e+02   2.1 2.42e-02 6.32e-03f  1
iter    objective    inf_pr   inf_du lg(mu)  ||d||  lg(rg) alpha_du alpha_pr  ls
  40 -2.0663225e+09 2.66e-15 1.25e+03  -1.0 5.30e+00   2.6 1.00e+00 2.45e-02f  1
  41 -2.1622227e+09 2.50e-15 1.27e+03  -1.0 1.48e+00   3.0 1.00e+00 2.46e-01f  1
  42 -2.2779098e+09 2.16e-15 1.26e+03  -1.0 6.12e+00   2.5 1.00e+00 7.85e-02f  1
  43 -2.3586594e+09 2.22e-15 1.27e+03  -1.0 1.68e+00   2.9 1.00e+00 1.87e-01f  1
  44 -2.4620682e+09 2.28e-15 1.24e+03  -1.0 7.44e+00   2.4 1.00e+00 6.38e-02f  1
  45 -2.5370008e+09 2.11e-15 1.24e+03  -1.0 1.90e+00   2.9 1.00e+00 1.63e-01f  1
  46 -2.6342119e+09 2.11e-15 1.22e+03  -1.0 8.94e+00   2.4 8.53e-01 5.26e-02f  1
  47 -2.7044539e+09 2.22e-15 1.22e+03  -1.0 2.13e+00   2.8 1.00e+00 1.38e-01f  1
  48 -2.8143088e+09 2.00e-15 1.21e+03  -1.0 1.12e+01   2.3 6.30e-01 5.06e-02f  1
  49 -2.8762669e+09 1.83e-15 1.20e+03  -1.0 2.48e+00   2.8 1.00e+00 1.09e-01f  1
iter    objective    inf_pr   inf_du lg(mu)  ||d||  lg(rg) alpha_du alpha_pr  ls
  50 -2.9864692e+09 2.11e-15 1.20e+03  -1.0 1.35e+01   2.3 3.89e-01 4.35e-02f  1
  51 -3.0442839e+09 2.33e-15 1.18e+03  -1.0 2.73e+00   2.7 1.00e+00 9.28e-02f  1
  52 -3.1543314e+09 2.66e-15 1.19e+03  -1.0 1.70e+01   2.2 2.07e-01 3.70e-02f  1
  53 -3.2019313e+09 2.33e-15 1.14e+03  -1.0 3.07e+00   2.7 1.00e+00 6.81e-02f  1
  54 -3.3103818e+09 2.44e-15 1.17e+03  -1.0 2.30e+01   2.2 6.98e-02 2.98e-02f  1
  55 -3.3389215e+09 2.39e-15 1.12e+03  -1.0 3.55e+00   2.6 1.00e+00 3.58e-02f  1
  56 -3.4378598e+09 2.61e-15 1.15e+03  -1.0 3.75e+01   2.1 3.77e-02 2.04e-02f  1
  57 -3.4600922e+09 2.66e-15 1.11e+03  -1.0 4.30e+00   2.6 1.00e+00 2.44e-02f  1
  58 -3.5516119e+09 2.78e-15 1.13e+03  -1.0 7.04e+01   2.1 2.16e-02 1.30e-02f  1
  59 -3.5746148e+09 2.78e-15 1.11e+03  -1.0 4.94e+00   2.5 6.03e-01 2.23e-02f  1
iter    objective    inf_pr   inf_du lg(mu)  ||d||  lg(rg) alpha_du alpha_pr  ls
  60 -3.6198489e+09 3.16e-15 1.14e+03  -1.0 2.89e+02   2.0 5.81e-03 3.19e-03f  1
  61 -3.6298731e+09 3.16e-15 1.15e+03  -1.0 5.63e+00   2.5 1.00e+00 8.70e-03f  1
  62 -3.7095413e+09 2.66e-15 1.07e+03  -1.0 1.53e+00   2.9 1.00e+00 2.23e-01f  1
  63 -3.7935805e+09 2.61e-15 1.09e+03  -1.0 6.10e+00   2.4 8.60e-02 6.89e-02f  1
  64 -3.8078693e+09 2.66e-15 1.05e+03  -1.0 1.73e+00   2.8 1.00e+00 3.59e-02f  1
  65 -3.8992330e+09 2.83e-15 1.07e+03  -1.0 7.26e+00   2.4 6.85e-02 6.66e-02f  1
  66 -3.9198062e+09 2.33e-15 1.04e+03  -1.0 1.97e+00   2.8 1.00e+00 4.77e-02f  1
  67 -3.9901067e+09 2.66e-15 1.06e+03  -1.0 9.45e+00   2.3 9.85e-02 4.43e-02f  1
  68 -4.0167896e+09 2.66e-15 1.03e+03  -1.0 2.31e+00   2.7 1.00e+00 5.62e-02f  1
  69 -4.0820419e+09 2.78e-15 1.06e+03  -1.0 1.24e+01   2.3 9.79e-02 3.46e-02f  1
iter    objective    inf_pr   inf_du lg(mu)  ||d||  lg(rg) alpha_du alpha_pr  ls
  70 -4.1079499e+09 2.78e-15 1.04e+03  -1.0 2.68e+00   2.7 1.00e+00 4.97e-02f  1
  71 -4.1739794e+09 2.44e-15 1.06e+03  -1.0 1.70e+01   2.2 4.58e-02 2.98e-02f  1
  72 -4.1868214e+09 2.94e-15 1.07e+03  -1.0 3.10e+00   2.6 1.00e+00 2.25e-02f  1
  73 -4.2506799e+09 3.11e-15 1.05e+03  -1.0 2.26e+01   2.2 2.18e-02 2.35e-02f  1
  74 -4.2616114e+09 3.55e-15 1.18e+03  -1.0 3.53e+00   2.6 1.00e+00 1.73e-02f  1
  75 -4.3509938e+09 3.50e-15 1.14e+03  -1.0 3.00e+01   2.1 1.20e-02 2.48e-02f  1
  76 -4.3631611e+09 3.00e-15 1.23e+03  -1.0 3.78e+00   2.5 5.89e-01 1.67e-02f  1
  77 -4.4182213e+09 3.16e-15 1.20e+03  -1.0 6.77e+01   2.1 3.19e-03 9.87e-03f  1
  78 -4.4218068e+09 3.44e-15 1.38e+03  -1.0 4.69e+00   2.5 4.14e-01 4.24e-03f  1
  79 -4.4512230e+09 3.55e-15 1.09e+03  -1.0 1.33e+00   2.9 1.00e+00 1.04e-01f  1
iter    objective    inf_pr   inf_du lg(mu)  ||d||  lg(rg) alpha_du alpha_pr  ls
  80 -4.5078986e+09 3.05e-15 1.08e+03  -1.0 5.39e+00   2.4 2.47e-01 6.04e-02f  1
  81 -4.5357820e+09 2.66e-15 9.61e+02  -1.0 1.52e+00   2.9 1.00e+00 8.90e-02f  1
  82 -4.5949970e+09 2.89e-15 9.72e+02  -1.0 6.47e+00   2.4 1.49e-01 5.61e-02f  1
  83 -4.6135390e+09 2.78e-15 1.05e+03  -1.0 1.73e+00   2.8 1.00e+00 5.41e-02f  1
  84 -4.6722134e+09 2.78e-15 1.02e+03  -1.0 7.73e+00   2.3 1.13e-01 4.92e-02f  1
  85 -4.6872110e+09 3.00e-15 1.05e+03  -1.0 1.97e+00   2.8 1.00e+00 4.01e-02f  1
  86 -4.7448215e+09 3.11e-15 1.01e+03  -1.0 9.69e+00   2.3 6.59e-02 4.21e-02f  1
  87 -4.7579862e+09 3.11e-15 1.13e+03  -1.0 2.24e+00   2.7 1.00e+00 3.16e-02f  1
  88 -4.8297519e+09 3.11e-15 1.08e+03  -1.0 1.27e+01   2.2 4.41e-02 4.45e-02f  1
  89 -4.8337945e+09 2.89e-15 1.27e+03  -1.0 2.61e+00   2.7 1.00e+00 8.57e-03f  1
iter    objective    inf_pr   inf_du lg(mu)  ||d||  lg(rg) alpha_du alpha_pr  ls
  90 -4.8829669e+09 3.22e-15 1.23e+03  -1.0 1.61e+01   2.2 1.66e-02 2.71e-02f  1
  91 -4.8908458e+09 3.33e-15 1.26e+03  -1.0 2.99e+00   2.6 9.50e-01 1.56e-02f  1
  92 -4.9360876e+09 2.94e-15 1.23e+03  -1.0 2.31e+01   2.1 1.63e-02 2.17e-02f  1
  93 -4.9471670e+09 3.00e-15 1.35e+03  -1.0 3.40e+00   2.6 6.62e-01 2.06e-02f  1
  94 -4.9899440e+09 2.83e-15 1.30e+03  -1.0 3.44e+01   2.1 5.76e-03 1.65e-02f  1
  95 -4.9938273e+09 3.05e-15 1.38e+03  -1.0 3.94e+00   2.5 3.99e-01 6.55e-03f  1
  96 -5.0161545e+09 3.28e-15 1.36e+03  -1.0 7.44e+01   2.0 9.82e-04 6.53e-03f  1
  97 -5.0204310e+09 3.55e-15 1.40e+03  -1.0 4.63e+00   2.4 2.95e-01 6.56e-03f  1
  98 -5.0229344e+09 3.55e-15 1.40e+03  -1.0 5.68e+03   2.0 1.24e-05 1.80e-04f  1
  99 -5.0247430e+09 3.33e-15 1.41e+03  -1.0 5.37e+00   2.4 1.83e-01 2.52e-03f  1
iter    objective    inf_pr   inf_du lg(mu)  ||d||  lg(rg) alpha_du alpha_pr  ls
 100 -5.0663173e+09 3.11e-15 9.67e+02  -1.0 1.48e+00   2.8 1.00e+00 1.64e-01f  1
 101 -5.0798396e+09 3.22e-15 1.02e+03  -1.0 6.16e+00   2.3 1.53e-01 1.75e-02f  1
 102 -5.1179717e+09 2.89e-15 9.33e+02  -1.0 1.65e+00   2.8 1.00e+00 1.43e-01f  1
 103 -5.1662442e+09 3.22e-15 8.94e+02  -1.0 7.39e+00   2.3 9.78e-02 5.70e-02f  1
 104 -5.1879524e+09 3.11e-15 9.76e+02  -1.0 1.92e+00   2.7 1.00e+00 7.59e-02f  1
 105 -5.2241392e+09 2.89e-15 9.48e+02  -1.0 9.25e+00   2.2 5.82e-02 3.78e-02f  1
 106 -5.2370300e+09 3.11e-15 1.22e+03  -1.0 2.18e+00   2.7 1.00e+00 4.13e-02f  1
 107 -5.2814931e+09 2.78e-15 1.17e+03  -1.0 1.12e+01   2.2 4.30e-02 4.18e-02f  1
 108 -5.2906135e+09 2.83e-15 1.25e+03  -1.0 2.33e+00   2.6 9.37e-01 2.72e-02f  1
 109 -5.3391758e+09 2.89e-15 1.20e+03  -1.0 1.13e+01   2.1 3.25e-02 4.16e-02f  1
iter    objective    inf_pr   inf_du lg(mu)  ||d||  lg(rg) alpha_du alpha_pr  ls
 110 -5.3440962e+09 3.11e-15 1.26e+03  -1.0 2.64e+00   2.6 9.01e-01 1.39e-02f  1
 111 -5.3876103e+09 3.22e-15 1.21e+03  -1.0 1.51e+01   2.1 2.65e-02 3.31e-02f  1
 112 -5.3956117e+09 3.33e-15 1.32e+03  -1.0 2.97e+00   2.5 1.00e+00 2.10e-02f  1
 113 -5.4428854e+09 3.11e-15 1.27e+03  -1.0 2.25e+01   2.0 2.01e-02 3.05e-02f  1
 114 -5.4495512e+09 3.22e-15 1.31e+03  -1.0 3.62e+00   2.5 6.59e-01 1.61e-02f  1
 115 -5.4773928e+09 3.44e-15 1.29e+03  -1.0 3.79e+01   2.0 1.66e-02 1.41e-02f  1
 116 -5.4855346e+09 3.44e-15 1.36e+03  -1.0 4.16e+00   2.4 9.28e-01 1.80e-02f  1
 117 -5.5143411e+09 3.66e-15 1.35e+03  -1.0 7.23e+01   1.9 1.27e-02 1.07e-02f  1
 118 -5.5235745e+09 3.39e-15 1.32e+03  -1.0 4.74e+00   2.4 3.28e-01 1.85e-02f  1
 119 -5.5324594e+09 3.55e-15 1.32e+03  -1.0 5.33e+02   1.9 2.48e-03 1.61e-03f  1
iter    objective    inf_pr   inf_du lg(mu)  ||d||  lg(rg) alpha_du alpha_pr  ls
 120 -5.5359970e+09 3.72e-15 1.30e+03  -1.0 5.43e+00   2.3 3.73e-01 6.39e-03f  1
 121 -5.5701252e+09 3.28e-15 9.08e+02  -1.0 1.50e+00   2.7 1.00e+00 1.76e-01f  1
 122 -5.5974505e+09 3.28e-15 8.92e+02  -1.0 6.36e+00   2.3 1.79e-01 4.56e-02f  1
 123 -5.6235152e+09 3.22e-15 7.81e+02  -1.0 1.72e+00   2.7 1.00e+00 1.25e-01f  1
 124 -5.6629067e+09 3.11e-15 7.63e+02  -1.0 7.45e+00   2.2 1.52e-01 5.82e-02f  1
 125 -5.6736362e+09 2.66e-15 7.88e+02  -1.0 1.95e+00   2.6 1.00e+00 4.78e-02f  1
 126 -5.7122898e+09 2.66e-15 7.64e+02  -1.0 9.48e+00   2.2 1.17e-01 5.11e-02f  1
 127 -5.7210063e+09 3.05e-15 9.08e+02  -1.0 2.25e+00   2.6 1.00e+00 3.60e-02f  1
 128 -5.7583718e+09 3.11e-15 8.75e+02  -1.0 1.19e+01   2.1 5.85e-02 4.39e-02f  1
 129 -5.7638119e+09 3.50e-15 1.01e+03  -1.0 2.59e+00   2.5 1.00e+00 2.09e-02f  1
iter    objective    inf_pr   inf_du lg(mu)  ||d||  lg(rg) alpha_du alpha_pr  ls
 130 -5.7955003e+09 3.61e-15 9.83e+02  -1.0 1.52e+01   2.1 4.06e-02 3.31e-02f  1
 131 -5.8056859e+09 3.55e-15 9.69e+02  -1.0 2.94e+00   2.5 3.92e-01 3.64e-02f  1
 132 -5.8271462e+09 3.66e-15 9.48e+02  -1.0 2.15e+01   2.0 1.59e-02 1.97e-02f  1
 133 -5.8312143e+09 3.39e-15 1.07e+03  -1.0 3.39e+00   2.4 8.37e-01 1.36e-02f  1
 134 -5.8524724e+09 3.33e-15 1.04e+03  -1.0 2.85e+01   2.0 6.99e-03 1.82e-02f  1
 135 -5.8571216e+09 3.50e-15 1.06e+03  -1.0 3.84e+00   2.4 3.36e-01 1.52e-02f  1
 136 -5.8735565e+09 4.00e-15 1.04e+03  -1.0 5.90e+01   1.9 2.81e-03 1.09e-02f  1
 137 -5.8751915e+09 3.44e-15 1.09e+03  -1.0 4.55e+00   2.3 3.81e-01 4.94e-03f  1
 138 -5.8888564e+09 3.55e-15 1.08e+03  -1.0 1.16e+02   1.9 3.46e-03 7.40e-03f  1
 139 -5.8910384e+09 3.50e-15 1.12e+03  -1.0 4.98e+00   2.3 3.77e-01 6.26e-03f  1
iter    objective    inf_pr   inf_du lg(mu)  ||d||  lg(rg) alpha_du alpha_pr  ls
 140 -5.9027655e+09 3.22e-15 9.45e+02  -1.0 1.40e+00   2.7 1.00e+00 9.27e-02f  1
 141 -5.9369696e+09 3.55e-15 8.70e+02  -1.0 5.86e+00   2.2 1.58e-01 9.73e-02f  1
 142 -5.9408507e+09 3.66e-15 8.91e+02  -1.0 1.64e+00   2.7 1.00e+00 3.01e-02f  1
 143 -5.9582381e+09 3.39e-15 8.67e+02  -1.0 6.86e+00   2.2 1.13e-01 4.60e-02f  1
 144 -5.9664122e+09 3.22e-15 8.28e+02  -1.0 1.83e+00   2.6 1.00e+00 6.05e-02f  1
 145 -5.9889305e+09 3.28e-15 7.86e+02  -1.0 8.19e+00   2.1 9.77e-02 5.56e-02f  1
 146 -5.9942759e+09 3.22e-15 9.11e+02  -1.0 2.06e+00   2.5 1.00e+00 3.77e-02f  1
 147 -6.0149543e+09 3.55e-15 8.73e+02  -1.0 1.04e+01   2.1 6.55e-02 4.54e-02f  1
 148 -6.0179540e+09 3.89e-15 9.54e+02  -1.0 2.25e+00   2.5 1.00e+00 1.96e-02f  1
 149 -6.0436201e+09 3.28e-15 9.01e+02  -1.0 1.20e+01   2.0 2.65e-02 4.98e-02f  1
iter    objective    inf_pr   inf_du lg(mu)  ||d||  lg(rg) alpha_du alpha_pr  ls
 150 -6.0482737e+09 3.77e-15 9.22e+02  -1.0 2.51e+00   2.4 6.90e-01 2.78e-02f  1
 151 -6.0709945e+09 3.89e-15 8.81e+02  -1.0 1.80e+01   2.0 1.55e-02 3.82e-02f  1
 152 -6.0729429e+09 3.72e-15 9.04e+02  -1.0 3.07e+00   2.4 6.70e-01 1.07e-02f  1
 153 -6.0876562e+09 4.11e-15 8.86e+02  -1.0 2.72e+01   1.9 2.53e-02 2.15e-02f  1
 154 -6.0894050e+09 4.33e-15 8.79e+02  -1.0 3.49e+00   2.3 3.28e-01 9.00e-03f  1
 155 -6.0996370e+09 4.05e-15 8.67e+02  -1.0 5.70e+01   1.9 8.45e-04 1.26e-02f  1
 156 -6.1005044e+09 4.00e-15 8.65e+02  -1.0 4.17e+00   2.3 3.30e-01 4.13e-03f  1
 157 -6.1022331e+09 3.77e-15 8.64e+02  -1.0 4.01e+02   1.8 6.21e-04 1.47e-03f  1
 158 -6.1029450e+09 4.00e-15 8.63e+02  -1.0 4.76e+00   2.2 2.12e-01 3.17e-03f  1
 159 -6.1166404e+09 3.66e-15 6.74e+02  -1.0 1.34e+00   2.7 1.00e+00 1.58e-01f  1
iter    objective    inf_pr   inf_du lg(mu)  ||d||  lg(rg) alpha_du alpha_pr  ls
 160 -6.1328356e+09 3.50e-15 6.38e+02  -1.0 5.82e+00   2.2 1.82e-01 6.81e-02f  1
 161 -6.1371696e+09 3.44e-15 6.19e+02  -1.0 1.61e+00   2.6 1.00e+00 4.87e-02f  1
 162 -6.1504242e+09 3.44e-15 5.91e+02  -1.0 6.62e+00   2.1 1.12e-01 5.18e-02f  1
 163 -6.1554204e+09 3.11e-15 6.00e+02  -1.0 1.75e+00   2.6 1.00e+00 5.35e-02f  1
 164 -6.1766233e+09 3.00e-15 5.83e+02  -1.0 8.39e+00   2.1 6.87e-02 7.60e-02f  1
 165 -6.1774952e+09 3.28e-15 5.79e+02  -1.0 2.06e+00   2.5 1.00e+00 8.76e-03f  1
 166 -6.1887278e+09 3.00e-15 5.60e+02  -1.0 8.86e+00   2.0 5.60e-02 3.61e-02f  1
 167 -6.1931736e+09 2.94e-15 6.00e+02  -1.0 2.08e+00   2.5 1.00e+00 4.11e-02f  1
 168 -6.2199247e+09 3.22e-15 5.54e+02  -1.0 9.72e+00   2.0 6.59e-02 7.34e-02f  1
 169 -6.2210030e+09 2.94e-15 6.54e+02  -1.0 2.42e+00   2.4 1.00e+00 8.76e-03f  1
iter    objective    inf_pr   inf_du lg(mu)  ||d||  lg(rg) alpha_du alpha_pr  ls
 170 -6.2376364e+09 2.94e-15 6.30e+02  -1.0 1.53e+01   1.9 6.13e-02 3.81e-02f  1
 171 -6.2439853e+09 3.05e-15 6.18e+02  -1.0 2.64e+00   2.4 1.00e+00 4.56e-02f  1
 172 -6.2650953e+09 3.00e-15 5.93e+02  -1.0 2.66e+01   1.9 5.29e-02 4.11e-02f  1
 173 -6.2659221e+09 3.33e-15 5.99e+02  -1.0 2.60e+00   2.3 1.00e+00 5.34e-03f  1
 174 -6.2937190e+09 3.61e-15 5.69e+02  -1.0 4.30e+01   1.8 2.01e-02 4.96e-02f  1
 175 -6.2946542e+09 3.33e-15 5.67e+02  -1.0 3.73e+00   2.3 2.98e-01 5.71e-03f  1
 176 -6.3047461e+09 3.00e-15 4.47e+02  -1.0 1.01e+00   2.7 1.00e+00 1.63e-01f  1
 177 -6.3276237e+09 2.72e-15 4.75e+02  -1.0 4.10e+00   2.2 2.39e-01 1.30e-01f  1
 178 -6.3327919e+09 2.61e-15 4.78e+02  -1.0 1.25e+00   2.6 1.00e+00 7.97e-02f  1
 179 -6.3419745e+09 2.55e-15 4.85e+02  -1.0 4.86e+00   2.2 1.28e-01 4.82e-02f  1
iter    objective    inf_pr   inf_du lg(mu)  ||d||  lg(rg) alpha_du alpha_pr  ls
 180 -6.3432910e+09 2.94e-15 5.34e+02  -1.0 1.24e+00   2.6 1.00e+00 1.93e-02f  1
 181 -6.3607645e+09 2.66e-15 4.87e+02  -1.0 5.47e+00   2.1 8.77e-02 8.69e-02f  1
 182 -6.3638861e+09 2.66e-15 5.80e+02  -1.0 1.52e+00   2.5 1.00e+00 4.45e-02f  1
 183 -6.3757833e+09 2.66e-15 5.44e+02  -1.0 7.24e+00   2.1 3.76e-02 5.97e-02f  1
 184 -6.3781207e+09 2.61e-15 5.60e+02  -1.0 1.81e+00   2.5 1.00e+00 3.40e-02f  1
 185 -6.3853743e+09 2.78e-15 5.39e+02  -1.0 7.66e+00   2.0 1.53e-02 3.52e-02f  1
 186 -6.3881482e+09 2.66e-15 5.45e+02  -1.0 1.80e+00   2.4 5.28e-01 3.92e-02f  1
 187 -6.3981637e+09 2.94e-15 5.15e+02  -1.0 1.09e+01   2.0 2.25e-02 4.44e-02f  1
 188 -6.3999355e+09 3.22e-15 5.71e+02  -1.0 2.23e+00   2.4 6.54e-01 2.43e-02f  1
 189 -6.4128055e+09 3.05e-15 5.32e+02  -1.0 1.78e+01   1.9 2.90e-03 5.21e-02f  1
iter    objective    inf_pr   inf_du lg(mu)  ||d||  lg(rg) alpha_du alpha_pr  ls
 190 -6.4136088e+09 3.05e-15 5.41e+02  -1.0 2.86e+00   2.3 2.29e-01 1.07e-02f  1
 191 -6.4154850e+09 3.50e-15 5.37e+02  -1.0 3.38e+01   1.8 2.37e-03 6.20e-03f  1
 192 -6.4159102e+09 3.33e-15 5.54e+02  -1.0 3.29e+00   2.3 3.12e-01 5.36e-03f  1
 193 -6.4178652e+09 3.55e-15 5.50e+02  -1.0 1.06e+02   1.8 3.84e-04 5.10e-03f  1
 194 -6.4182161e+09 3.28e-15 5.59e+02  -1.0 3.65e+00   2.2 1.83e-01 4.12e-03f  1
 195 -6.4198436e+09 3.28e-15 5.66e+02  -1.0 1.10e+00   2.7 1.00e+00 5.05e-02f  1
 196 -6.4271188e+09 3.44e-15 5.37e+02  -1.0 4.15e+00   2.2 1.90e-01 8.24e-02f  1
 197 -6.4289855e+09 3.05e-15 5.50e+02  -1.0 1.25e+00   2.6 1.00e+00 5.63e-02f  1
 198 -6.4353134e+09 3.44e-15 5.16e+02  -1.0 4.71e+00   2.1 1.04e-01 6.85e-02f  1
 199 -6.4371115e+09 3.00e-15 5.07e+02  -1.0 1.36e+00   2.5 1.00e+00 5.28e-02f  1
iter    objective    inf_pr   inf_du lg(mu)  ||d||  lg(rg) alpha_du alpha_pr  ls
 200 -6.4439756e+09 2.94e-15 4.70e+02  -1.0 5.90e+00   2.1 6.37e-02 7.01e-02f  1
 201 -6.4445472e+09 2.94e-15 4.91e+02  -1.0 1.57e+00   2.5 1.00e+00 1.62e-02f  1
 202 -6.4495112e+09 2.89e-15 4.66e+02  -1.0 7.24e+00   2.0 1.12e-02 4.65e-02f  1
 203 -6.4506179e+09 3.00e-15 4.98e+02  -1.0 1.83e+00   2.4 7.47e-01 2.91e-02f  1
 204 -6.4551511e+09 3.05e-15 4.77e+02  -1.0 9.31e+00   2.0 2.08e-02 3.82e-02f  1
 205 -6.4560053e+09 3.11e-15 4.94e+02  -1.0 2.11e+00   2.4 6.61e-01 2.09e-02f  1
 206 -6.4600982e+09 3.05e-15 4.78e+02  -1.0 1.14e+01   1.9 3.13e-02 3.23e-02f  1
 207 -6.4611088e+09 3.33e-15 6.41e+02  -1.0 2.42e+00   2.3 1.00e+00 2.36e-02f  1
 208 -6.4659947e+09 2.94e-15 6.15e+02  -1.0 1.55e+01   1.9 4.00e-03 3.67e-02f  1
 209 -6.4672235e+09 3.61e-15 6.10e+02  -1.0 2.29e+00   2.3 5.19e-01 2.69e-02f  1
iter    objective    inf_pr   inf_du lg(mu)  ||d||  lg(rg) alpha_du alpha_pr  ls
 210 -6.4717440e+09 3.61e-15 5.90e+02  -1.0 4.34e+01   1.8 9.62e-03 2.90e-02f  1
 211 -6.4719723e+09 3.22e-15 6.11e+02  -1.0 2.81e+00   2.2 1.00e+00 4.49e-03f  1
 212 -6.4786141e+09 3.33e-15 5.87e+02  -1.0 2.95e+01   1.8 2.59e-02 3.81e-02f  1
 213 -6.4788991e+09 3.66e-15 5.94e+02  -1.0 3.45e+00   2.2 1.00e+00 5.10e-03f  1
 214 -6.4813668e+09 3.55e-15 5.88e+02  -1.0 2.69e+01   1.7 5.74e-02 1.29e-02f  1
 215 -6.4847430e+09 3.61e-15 5.69e+02  -1.0 2.63e+00   2.1 1.00e+00 5.63e-02f  1
 216 -6.4967919e+09 3.72e-15 5.36e+02  -1.0 1.17e+01   1.7 5.70e-02 5.72e-02f  1
 217 -6.4980100e+09 4.05e-15 5.86e+02  -1.0 2.97e+00   2.1 1.00e+00 1.87e-02f  1
 218 -6.5065334e+09 3.50e-15 5.63e+02  -1.0 1.51e+01   1.6 3.62e-02 3.80e-02f  1
 219 -6.5076857e+09 4.22e-15 6.59e+02  -1.0 3.51e+00   2.0 1.00e+00 1.75e-02f  1
iter    objective    inf_pr   inf_du lg(mu)  ||d||  lg(rg) alpha_du alpha_pr  ls
 220 -6.5139587e+09 4.39e-15 6.42e+02  -1.0 2.46e+01   1.6 2.78e-02 2.59e-02f  1
 221 -6.5150439e+09 4.22e-15 6.38e+02  -1.0 3.99e+00   2.0 4.31e-01 1.69e-02f  1
 222 -6.5190050e+09 3.77e-15 5.22e+02  -1.0 1.29e+00   2.4 1.00e+00 1.62e-01f  1
 223 -6.5256348e+09 3.39e-15 4.77e+02  -1.0 4.63e+00   1.9 2.99e-01 1.12e-01f  1
 224 -6.5270587e+09 3.11e-15 5.03e+02  -1.0 1.49e+00   2.4 1.00e+00 6.44e-02f  1
 225 -6.5327106e+09 2.94e-15 4.65e+02  -1.0 4.91e+00   1.9 2.12e-01 9.90e-02f  1
 226 -6.5343563e+09 2.89e-15 4.79e+02  -1.0 1.58e+00   2.3 1.00e+00 7.80e-02f  1
 227 -6.5383301e+09 2.72e-15 4.50e+02  -1.0 5.90e+00   1.8 1.60e-01 6.64e-02f  1
 228 -6.5400038e+09 2.61e-15 5.62e+02  -1.0 1.79e+00   2.3 1.00e+00 7.76e-02f  1
 229 -6.5437439e+09 2.66e-15 5.36e+02  -1.0 6.88e+00   1.8 1.24e-01 5.84e-02f  1
iter    objective    inf_pr   inf_du lg(mu)  ||d||  lg(rg) alpha_du alpha_pr  ls
 230 -6.5449719e+09 2.66e-15 5.34e+02  -1.0 2.03e+00   2.2 1.00e+00 5.62e-02f  1
 231 -6.5488559e+09 2.33e-15 5.11e+02  -1.0 7.22e+00   1.7 1.03e-01 5.69e-02f  1
 232 -6.5500947e+09 2.55e-15 5.80e+02  -1.0 2.07e+00   2.2 1.00e+00 5.51e-02f  1
 233 -6.5546524e+09 2.61e-15 5.49e+02  -1.0 1.04e+01   1.7 9.30e-02 6.05e-02f  1
 234 -6.5558073e+09 2.44e-15 5.63e+02  -1.0 2.42e+00   2.1 1.00e+00 4.74e-02f  1
 235 -6.5583179e+09 2.66e-15 5.55e+02  -1.0 1.52e+01   1.6 8.39e-02 2.79e-02f  1
 236 -6.5600397e+09 2.89e-15 6.49e+02  -1.0 2.55e+00   2.1 1.00e+00 6.48e-02f  1
 237 -6.5616665e+09 2.78e-15 6.53e+02  -1.0 2.11e+01   1.6 6.87e-02 1.59e-02f  1
 238 -6.5656784e+09 2.66e-15 5.67e+02  -1.0 2.80e+00   2.0 4.27e-01 1.40e-01f  1
 239 -6.5679548e+09 2.16e-15 4.66e+02  -1.0 9.62e-01   2.4 1.00e+00 2.08e-01f  1
iter    objective    inf_pr   inf_du lg(mu)  ||d||  lg(rg) alpha_du alpha_pr  ls
 240 -6.5701689e+09 2.28e-15 4.55e+02  -1.0 3.24e+00   2.0 3.22e-01 7.46e-02f  1
 241 -6.5716511e+09 2.16e-15 5.12e+02  -1.0 1.06e+00   2.4 1.00e+00 1.36e-01f  1
 242 -6.5741075e+09 2.05e-15 4.78e+02  -1.0 3.73e+00   1.9 1.95e-01 8.35e-02f  1
 243 -6.5752712e+09 2.16e-15 5.20e+02  -1.0 1.21e+00   2.3 1.00e+00 1.08e-01f  1
 244 -6.5779246e+09 2.22e-15 4.81e+02  -1.0 4.39e+00   1.8 1.97e-01 8.98e-02f  1
 245 -6.5783064e+09 2.22e-15 4.77e+02  -1.0 1.37e+00   2.3 1.00e+00 3.60e-02f  1
 246 -6.5801156e+09 2.44e-15 4.57e+02  -1.0 5.06e+00   1.8 1.57e-01 6.06e-02f  1
 247 -6.5813338e+09 2.22e-15 5.45e+02  -1.0 1.55e+00   2.2 1.00e+00 1.11e-01f  1
 248 -6.5838597e+09 2.05e-15 5.04e+02  -1.0 6.60e+00   1.7 9.69e-02 7.86e-02f  1
 249 -6.5841048e+09 2.33e-15 5.12e+02  -1.0 1.75e+00   2.2 1.00e+00 2.16e-02f  1
iter    objective    inf_pr   inf_du lg(mu)  ||d||  lg(rg) alpha_du alpha_pr  ls
 250 -6.5864713e+09 2.28e-15 4.72e+02  -1.0 8.30e+00   1.7 3.35e-02 6.95e-02f  1
 251 -6.5866141e+09 2.66e-15 4.78e+02  -1.0 2.09e+00   2.1 6.88e-01 1.19e-02f  1
 252 -6.5883412e+09 2.50e-15 4.52e+02  -1.0 1.23e+01   1.6 2.42e-02 4.77e-02f  1
 253 -6.5884354e+09 2.66e-15 4.90e+02  -1.0 2.34e+00   2.1 5.25e-01 7.46e-03f  1
 254 -6.5900815e+09 2.66e-15 4.61e+02  -1.0 1.42e+01   1.6 2.43e-02 4.70e-02f  1
 255 -6.5908968e+09 3.05e-15 4.73e+02  -1.0 2.16e+00   2.0 5.26e-01 6.43e-02f  1
 256 -6.5915718e+09 3.11e-15 4.65e+02  -1.0 2.94e+01   1.5 1.90e-02 1.74e-02f  1
 257 -6.5916585e+09 2.89e-15 4.90e+02  -1.0 2.56e+00   2.0 4.68e-01 6.70e-03f  1
 258 -6.5934194e+09 3.28e-15 4.63e+02  -1.0 6.98e+01   1.5 2.61e-03 3.90e-02f  1
 259 -6.5935342e+09 3.00e-15 4.95e+02  -1.0 3.30e+00   1.9 3.32e-01 8.25e-03f  1
iter    objective    inf_pr   inf_du lg(mu)  ||d||  lg(rg) alpha_du alpha_pr  ls
 260 -6.5949781e+09 2.39e-15 4.15e+02  -1.0 1.01e+00   2.3 1.00e+00 2.66e-01f  1
 261 -6.5955225e+09 2.50e-15 4.12e+02  -1.0 3.42e+00   1.9 2.20e-01 4.31e-02f  1
 262 -6.5961832e+09 2.44e-15 3.54e+02  -1.0 1.12e+00   2.3 1.00e+00 1.36e-01f  1
 263 -6.5970469e+09 2.44e-15 3.35e+02  -1.0 3.47e+00   1.8 1.63e-01 7.68e-02f  1
 264 -6.5974240e+09 2.28e-15 3.10e+02  -1.0 1.16e+00   2.2 1.00e+00 9.05e-02f  1
 265 -6.5982812e+09 2.55e-15 2.96e+02  -1.0 2.79e+00   1.8 2.21e-01 8.80e-02f  1
 266 -6.5987653e+09 2.16e-15 2.58e+02  -1.0 1.06e+00   2.2 1.00e+00 1.30e-01f  1
 267 -6.5998148e+09 2.28e-15 2.46e+02  -1.0 3.09e+00   1.7 2.42e-01 1.06e-01f  1
 268 -6.6001459e+09 1.89e-15 2.76e+02  -1.0 1.16e+00   2.1 1.00e+00 8.91e-02f  1
 269 -6.6010685e+09 2.33e-15 2.51e+02  -1.0 3.57e+00   1.7 1.69e-01 9.28e-02f  1
iter    objective    inf_pr   inf_du lg(mu)  ||d||  lg(rg) alpha_du alpha_pr  ls
 270 -6.6013770e+09 2.50e-15 2.76e+02  -1.0 1.24e+00   2.1 1.00e+00 8.59e-02f  1
 271 -6.6023261e+09 2.28e-15 2.50e+02  -1.0 6.05e+00   1.6 1.10e-01 9.74e-02f  1
 272 -6.6025844e+09 2.11e-15 2.69e+02  -1.0 1.38e+00   2.0 1.00e+00 7.48e-02f  1
 273 -6.6034014e+09 2.39e-15 2.48e+02  -1.0 1.29e+01   1.6 3.39e-02 7.87e-02f  1
 274 -6.6036420e+09 2.22e-15 2.71e+02  -1.0 1.81e+00   2.0 1.00e+00 6.78e-02f  1
 275 -6.6039886e+09 2.22e-15 2.65e+02  -1.0 4.68e+01   1.5 1.38e-02 2.40e-02f  1
 276 -6.6040098e+09 2.44e-15 2.63e+02  -1.0 2.02e+00   1.9 2.98e-01 5.55e-03f  1
 277 -6.6045006e+09 2.11e-15 3.37e+02  -1.0 6.51e-01   2.4 1.00e+00 3.36e-01f  1
 278 -6.6050005e+09 1.83e-15 2.98e+02  -1.0 2.15e+00   1.9 1.96e-01 1.30e-01f  1
 279 -6.6052035e+09 1.78e-15 2.63e+02  -1.0 7.35e-01   2.3 1.00e+00 1.39e-01f  1
iter    objective    inf_pr   inf_du lg(mu)  ||d||  lg(rg) alpha_du alpha_pr  ls
 280 -6.6054655e+09 1.94e-15 2.53e+02  -1.0 2.40e+00   1.8 1.78e-01 6.65e-02f  1
 281 -6.6056633e+09 2.00e-15 3.09e+02  -1.0 8.27e-01   2.3 1.00e+00 1.35e-01f  1
 282 -6.6061619e+09 1.89e-15 2.71e+02  -1.0 2.99e+00   1.8 1.51e-01 1.24e-01f  1
 283 -6.6062976e+09 2.16e-15 2.45e+02  -1.0 9.00e-01   2.2 1.00e+00 9.35e-02f  1
 284 -6.6065328e+09 2.16e-15 2.31e+02  -1.0 3.50e+00   1.7 2.19e-01 5.74e-02f  1
 285 -6.6067916e+09 1.94e-15 2.98e+02  -1.0 9.54e-01   2.2 1.00e+00 1.76e-01f  1
 286 -6.6071504e+09 2.00e-15 2.73e+02  -1.0 4.25e+00   1.7 2.67e-01 8.41e-02f  1
 287 -6.6072102e+09 2.33e-15 3.28e+02  -1.0 9.56e-01   2.1 1.00e+00 4.15e-02f  1
 288 -6.6077950e+09 2.16e-15 2.85e+02  -1.0 5.13e+00   1.6 2.07e-01 1.39e-01f  1
 289 -6.6079710e+09 2.11e-15 2.70e+02  -1.0 1.28e+00   2.1 1.00e+00 1.22e-01f  1
iter    objective    inf_pr   inf_du lg(mu)  ||d||  lg(rg) alpha_du alpha_pr  ls
 290 -6.6081202e+09 2.22e-15 2.61e+02  -1.0 4.51e+00   1.6 4.38e-02 3.49e-02f  1
 291 -6.6082017e+09 2.44e-15 3.38e+02  -1.0 1.12e+00   2.0 1.00e+00 5.77e-02f  1
 292 -6.6087156e+09 2.33e-15 2.98e+02  -1.0 4.77e+00   1.5 2.99e-02 1.16e-01f  1
 293 -6.6088212e+09 2.39e-15 2.79e+02  -1.0 1.03e+00   2.0 5.49e-01 7.45e-02f  1
 294 -6.6089599e+09 1.83e-15 2.06e+02  -1.0 3.52e-01   2.4 1.00e+00 2.70e-01f  1
 295 -6.6091629e+09 1.89e-15 1.77e+02  -1.0 1.28e+00   1.9 3.70e-01 1.40e-01f  1
 296 -6.6092629e+09 1.78e-15 1.58e+02  -1.0 4.06e-01   2.3 1.00e+00 1.94e-01f  1
 297 -6.6094948e+09 1.89e-15 1.36e+02  -1.0 1.66e+00   1.8 2.29e-01 1.44e-01f  1
 298 -6.6099290e+09 1.78e-15 9.27e+01  -1.0 5.07e-01   2.3 1.00e+00 7.47e-01f  1
 299 -6.6101975e+09 1.78e-15 1.01e+02  -1.0 2.48e+00   1.8 1.66e-01 1.29e-01f  1
iter    objective    inf_pr   inf_du lg(mu)  ||d||  lg(rg) alpha_du alpha_pr  ls
 300 -6.6104412e+09 1.78e-15 1.06e+02  -1.0 6.98e-01   2.2 1.00e+00 3.36e-01f  1
 301 -6.6106853e+09 1.78e-15 1.15e+02  -1.0 3.77e+00   1.7 8.56e-02 8.98e-02f  1
 302 -6.6108929e+09 1.78e-15 1.55e+02  -1.0 9.54e-01   2.2 1.00e+00 2.32e-01f  1
 303 -6.6115177e+09 1.78e-15 1.56e+02  -1.0 6.87e+00   1.7 4.72e-02 1.59e-01f  1
 304 -6.6115512e+09 1.78e-15 1.58e+02  -1.0 1.59e+00   2.1 6.25e-01 2.70e-02f  1
 305 -6.6118081e+09 1.89e-15 2.25e+02  -1.0 1.08e+03   1.6 3.05e-04 1.48e-03f  1
 306 -6.6118183e+09 2.33e-15 2.11e+02  -1.0 2.58e+00   2.1 6.20e-01 5.98e-03f  1
 307 -6.6123269e+09 1.78e-15 2.00e+02  -1.0 6.40e-01   2.5 1.00e+00 1.00e+00f  1
 308 -6.6126855e+09 1.78e-15 2.14e+02  -1.0 2.61e+00   2.0 5.11e-01 1.93e-01f  1
 309 -6.6126909e+09 1.78e-15 2.13e+02  -1.0 5.87e-01   2.4 1.00e+00 8.55e-03f  1
iter    objective    inf_pr   inf_du lg(mu)  ||d||  lg(rg) alpha_du alpha_pr  ls
 310 -6.6136824e+09 1.78e-15 1.41e+02  -1.0 1.79e+00   2.0 1.27e-01 4.96e-01f  1
 311 -6.6137020e+09 1.78e-15 3.04e+02  -1.0 6.45e-01   2.4 9.29e-01 2.57e-02f  1
 312 -6.6151356e+09 1.78e-15 1.92e+02  -1.0 2.94e+00   1.9 1.68e-01 4.99e-01f  1
 313 -6.6151526e+09 1.78e-15 1.88e+02  -1.0 9.64e-01   2.3 3.24e-01 1.52e-02f  1
 314 -6.6159251e+09 1.78e-15 1.55e+02  -1.0 3.02e+00   1.9 2.24e-01 1.99e-01f  1
 315 -6.6161701e+09 1.78e-15 1.59e+02  -1.0 9.23e-01   2.3 6.80e-01 1.83e-01f  1
 316 -6.6163066e+09 1.78e-15 1.62e+02  -1.0 5.04e+00   1.8 5.19e-02 2.58e-02f  1
 317 -6.6165041e+09 1.78e-15 1.66e+02  -1.0 1.11e+00   2.2 5.79e-01 1.28e-01f  1
 318 -6.6167279e+09 1.83e-15 1.72e+02  -1.0 7.86e+00   1.8 3.83e-02 3.58e-02f  1
 319 -6.6167933e+09 1.83e-15 1.73e+02  -1.0 1.35e+00   2.2 6.99e-01 3.93e-02f  1
iter    objective    inf_pr   inf_du lg(mu)  ||d||  lg(rg) alpha_du alpha_pr  ls
 320 -6.6169794e+09 2.22e-15 1.78e+02  -1.0 1.28e+01   1.7 8.71e-03 2.43e-02f  1
 321 -6.6170010e+09 2.22e-15 1.79e+02  -1.0 1.62e+00   2.1 8.36e-01 1.26e-02f  1
 322 -6.6172742e+09 2.22e-15 1.86e+02  -1.0 3.38e+01   1.7 1.17e-02 2.55e-02f  1
 323 -6.6172882e+09 2.66e-15 1.86e+02  -1.0 1.96e+00   2.1 7.43e-01 7.47e-03f  1
 324 -6.6176344e+09 1.78e-15 1.95e+02  -1.0 6.23e-01   2.5 1.00e+00 5.58e-01f  1
 325 -6.6178243e+09 1.78e-15 2.01e+02  -1.0 2.37e+00   2.0 2.69e-01 9.68e-02f  1
 326 -6.6179152e+09 2.05e-15 2.03e+02  -1.0 7.43e-01   2.5 1.00e+00 1.37e-01f  1
 327 -6.6180341e+09 2.00e-15 1.97e+02  -1.0 1.91e+00   2.0 2.33e-01 5.84e-02f  1
 328 -6.6182055e+09 1.78e-15 4.50e+02  -1.0 5.84e-01   2.4 1.00e+00 2.63e-01f  1
 329 -6.6183688e+09 1.89e-15 4.22e+02  -1.0 2.42e+00   1.9 2.10e-01 7.48e-02f  1
iter    objective    inf_pr   inf_du lg(mu)  ||d||  lg(rg) alpha_du alpha_pr  ls
 330 -6.6184386e+09 1.78e-15 3.83e+02  -1.0 7.13e-01   2.4 1.00e+00 1.03e-01f  1
 331 -6.6186580e+09 1.78e-15 3.48e+02  -1.0 3.01e+00   1.9 1.37e-01 9.67e-02f  1
 332 -6.6186809e+09 2.22e-15 3.41e+02  -1.0 8.73e-01   2.3 1.00e+00 3.31e-02f  1
 333 -6.6189199e+09 1.94e-15 3.04e+02  -1.0 3.85e+00   1.8 7.99e-02 1.04e-01f  1
 334 -6.6189610e+09 2.11e-15 2.93e+02  -1.0 1.08e+00   2.3 1.00e+00 5.91e-02f  1
 335 -6.6192237e+09 2.22e-15 2.60e+02  -1.0 5.13e+00   1.8 4.53e-02 1.02e-01f  1
 336 -6.6192516e+09 2.61e-15 2.60e+02  -1.0 1.36e+00   2.2 1.00e+00 3.74e-02f  1
 337 -6.6194736e+09 2.16e-15 2.38e+02  -1.0 6.96e+00   1.7 2.28e-02 7.56e-02f  1
 338 -6.6195364e+09 2.11e-15 2.24e+02  -1.0 1.66e+00   2.2 5.80e-01 7.57e-02f  1
 339 -6.6196193e+09 2.44e-15 2.18e+02  -1.0 8.86e+00   1.7 2.06e-02 2.62e-02f  1
iter    objective    inf_pr   inf_du lg(mu)  ||d||  lg(rg) alpha_du alpha_pr  ls
 340 -6.6196405e+09 2.61e-15 5.78e+02  -1.0 1.53e+00   2.1 1.00e+00 2.90e-02f  1
 341 -6.6197751e+09 2.66e-15 5.54e+02  -1.0 1.05e+01   1.6 2.47e-02 3.91e-02f  1
 342 -6.6198384e+09 2.39e-15 5.18e+02  -1.0 1.93e+00   2.1 1.00e+00 8.07e-02f  1
 343 -6.6200490e+09 2.66e-15 5.01e+02  -1.0 1.64e+01   1.6 1.18e-01 4.52e-02f  1
 344 -6.6200575e+09 3.00e-15 5.00e+02  -1.0 1.88e+00   2.0 1.00e+00 1.14e-02f  1
 345 -6.6204059e+09 2.44e-15 4.70e+02  -1.0 2.65e+01   1.5 9.17e-02 6.57e-02f  1
 346 -6.6204129e+09 2.72e-15 4.84e+02  -1.0 2.35e+00   1.9 4.12e-01 7.42e-03f  1
 347 -6.6208174e+09 2.72e-15 4.52e+02  -1.0 1.75e+01   1.5 3.66e-02 5.92e-02f  1
 348 -6.6208582e+09 2.89e-15 5.60e+02  -1.0 1.93e+00   1.9 1.00e+00 3.83e-02f  1
 349 -6.6210799e+09 1.78e-15 1.71e+02  -1.0 5.35e-01   2.3 1.00e+00 6.77e-01f  1
iter    objective    inf_pr   inf_du lg(mu)  ||d||  lg(rg) alpha_du alpha_pr  ls
 350 -6.6214622e+09 1.78e-15 1.58e+02  -1.0 2.38e+00   1.8 1.00e+00 2.94e-01f  1
 351 -6.6218716e+09 1.78e-15 1.42e+02  -1.0 7.73e-01   2.3 1.00e+00 8.50e-01f  1
 352 -6.6219576e+09 1.78e-15 1.46e+02  -1.0 3.74e+00   1.8 7.06e-01 3.86e-02f  1
 353 -6.6221679e+09 1.78e-15 1.53e+02  -1.0 1.01e+00   2.2 1.00e+00 3.23e-01f  1
 354 -6.6222292e+09 1.78e-15 2.95e+02  -1.0 4.53e+00   1.7 5.94e-01 2.27e-02f  1
 355 -6.6226788e+09 1.78e-15 1.94e+02  -1.0 1.12e+00   2.2 1.00e+00 5.94e-01f  1
 356 -6.6227198e+09 1.78e-15 2.24e+02  -1.0 6.07e+00   1.7 4.57e-01 1.21e-02f  1
 357 -6.6228461e+09 1.78e-15 4.08e+02  -1.0 1.31e+00   2.1 1.00e+00 1.75e-01f  1
 358 -6.6230846e+09 1.89e-15 3.91e+02  -1.0 8.17e+00   1.6 3.65e-01 8.15e-02f  1
 359 -6.6231124e+09 1.94e-15 4.44e+02  -1.0 1.65e+00   2.1 1.00e+00 4.29e-02f  1
iter    objective    inf_pr   inf_du lg(mu)  ||d||  lg(rg) alpha_du alpha_pr  ls
 360 -6.6232426e+09 2.05e-15 4.36e+02  -1.0 9.17e+00   1.6 2.81e-01 4.90e-02f  1
 361 -6.6233480e+09 1.89e-15 4.00e+02  -1.0 1.50e+00   2.0 1.00e+00 1.88e-01f  1
 362 -6.6236220e+09 2.00e-15 3.80e+02  -1.0 1.76e+01   1.5 1.95e-01 7.32e-02f  1
 363 -6.6236290e+09 2.05e-15 3.84e+02  -1.0 1.87e+00   2.0 1.00e+00 9.65e-03f  1
 364 -6.6237457e+09 2.05e-15 3.81e+02  -1.0 1.99e+01   1.5 1.37e-01 2.99e-02f  1
 365 -6.6237657e+09 2.66e-15 3.85e+02  -1.0 1.00e+02   1.0 2.28e-02 1.78e-03f  1
 366 -6.6238478e+09 2.22e-15 5.30e+02  -1.0 2.64e+00   1.4 1.00e+00 7.24e-02f  1
 367 -6.6240975e+09 1.78e-15 2.00e+02  -1.0 1.13e+00   1.9 1.00e+00 5.66e-01f  1
 368 -6.6242685e+09 1.78e-15 2.61e+02  -1.0 2.69e+00   1.4 1.00e+00 1.74e-01f  1
 369 -6.6243137e+09 1.78e-15 1.80e+02  -1.0 1.14e+00   1.8 1.00e+00 1.20e-01f  1
iter    objective    inf_pr   inf_du lg(mu)  ||d||  lg(rg) alpha_du alpha_pr  ls
 370 -6.6246313e+09 1.78e-15 1.60e+02  -1.0 2.78e+00   1.3 8.37e-01 3.62e-01f  1
